Costo de la solución:
 1051,12383315582 

1	1	137,297	199	0	8	12	13	14	15	11	9	7	6	5	10	4	3	1	2	88	0	0
1	2	209,805	197	0	17	16	19	22	24	27	33	30	31	34	36	29	35	32	28	25	23	26	20	21	109	0	0
1	3	199,795	198	0	37	38	39	42	41	44	47	46	49	50	51	48	45	43	40	110	0	0
1	4	213,629	199	0	52	54	57	59	65	61	62	64	66	63	60	56	58	55	53	100	0	0
1	5	145,658	200	0	67	69	70	71	74	75	72	78	80	79	77	76	73	68	98	0	0
1	6	89,986	196	0	82	81	119	120	105	106	102	101	99	104	107	103	116	115	97	94	93	96	95	0	0
1	7	54,949	186	0	87	92	89	91	90	114	18	118	108	83	113	117	84	112	85	86	111	0	0
